SECTION Graph
Nodes 80
Edges 160
E 1 35 200
E 1 41 202
E 1 49 196
E 1 50 198
E 1 68 203
E 1 79 194
E 2 20 198
E 2 44 200
E 2 75 205
E 3 54 198
E 3 59 205
E 3 63 195
E 3 66 201
E 4 21 193
E 4 31 198
E 4 43 208
E 5 7 298
E 5 47 201
E 5 62 202
E 6 27 195
E 6 63 210
E 6 76 193
E 7 46 201
E 7 63 197
E 8 25 200
E 8 50 202
E 8 67 200
E 8 69 197
E 8 78 200
E 9 18 201
E 9 39 205
E 9 40 195
E 10 19 192
E 10 23 196
E 10 63 202
E 10 78 195
E 11 53 205
E 11 54 203
E 11 56 202
E 11 72 198
E 12 34 196
E 12 72 200
E 13 28 200
E 13 71 199
E 14 15 301
E 14 35 199
E 14 40 202
E 14 51 203
E 14 60 201
E 14 65 196
E 15 24 197
E 15 64 197
E 16 35 202
E 16 61 200
E 16 62 201
E 17 24 99
E 17 26 101
E 17 77 106
E 18 23 97
E 18 77 101
E 19 37 100
E 19 44 93
E 19 50 102
E 20 56 95
E 20 72 108
E 21 30 97
E 21 51 103
E 22 34 100
E 23 32 97
E 23 37 103
E 23 39 100
E 23 43 98
E 23 46 93
E 23 51 93
E 23 54 94
E 23 75 96
E 24 33 103
E 24 74 92
E 25 29 99
E 25 31 99
E 25 49 100
E 25 71 97
E 25 72 101
E 26 45 98
E 26 53 102
E 27 29 100
E 27 72 95
E 28 36 106
E 28 39 98
E 28 66 98
E 28 67 92
E 28 74 103
E 28 78 93
E 29 53 92
E 30 50 105
E 30 54 98
E 30 69 103
E 30 73 98
E 32 45 98
E 32 50 98
E 32 54 98
E 32 55 95
E 32 63 92
E 33 34 95
E 33 46 101
E 33 68 99
E 34 43 98
E 34 79 103
E 35 62 93
E 35 67 104
E 35 69 104
E 35 72 108
E 38 46 95
E 38 50 95
E 38 66 98
E 40 61 100
E 40 66 100
E 40 70 91
E 41 48 109
E 41 58 99
E 41 64 101
E 41 72 108
E 42 43 100
E 42 57 100
E 42 64 98
E 42 75 102
E 43 45 103
E 43 51 93
E 44 45 111
E 44 48 107
E 44 51 106
E 46 54 95
E 46 76 93
E 47 50 100
E 47 59 100
E 48 52 105
E 48 61 98
E 49 58 94
E 50 54 92
E 50 63 95
E 50 78 98
E 52 67 95
E 52 74 98
E 53 66 97
E 54 67 99
E 54 80 93
E 56 62 100
E 57 59 103
E 58 75 110
E 59 69 105
E 60 63 92
E 63 78 93
E 64 70 97
E 65 68 99
E 66 73 109
E 71 78 96
E 72 75 104
E 75 80 98
E 77 78 104
E 77 80 101
END

SECTION Terminals
Terminals 16
T 1
T 2
T 3
T 4
T 5
T 6
T 7
T 8
T 9
T 10
T 11
T 12
T 13
T 14
T 15
T 16
END

SECTION Tree Decomposition
s td 64 17 80
b 1 22 34
b 2 28 36
b 3 32 55
b 4 12 34 72
b 5 13 28 71
b 6 4 25 31
b 7 19 23 37
b 8 42 57 59
b 9 14 60 63
b 10 14 65 68
b 11 40 64 70
b 12 30 66 73
b 13 6 46 76
b 14 1 34 79
b 15 16 35 61 62
b 16 25 28 71 78
b 17 1 14 23 24 25 42 44 50 53 54 58 62 63 66 69 72 77
b 18 20 23 42 44 53 54 58 62 72 77
b 19 20 23 42 44 54 58 72 77 80
b 20 20 23 42 44 58 72 75 80
b 21 2 20 44 75
b 22 11 20 53 54 62 72
b 23 11 20 56 62
b 24 1 14 23 24 25 34 42 44 50 53 54 62 63 66 69 72 77
b 25 1 14 23 24 25 34 42 46 50 53 54 62 63 66 69 72
b 26 3 42 46 50 54 62 63 66 69
b 27 3 42 46 50 59 62 63 69
b 28 46 47 50 59 62 63
b 29 7 46 47 62 63
b 30 5 7 47 62
b 31 6 25 46 53 63 72
b 32 6 25 29 53 72
b 33 6 27 29 72
b 34 1 14 24 34 46 68
b 35 24 33 34 46 68
b 36 38 46 50 66
b 37 14 17 23 24 25 34 42 44 50 53 54 63 66 69 77
b 38 14 17 23 25 30 34 42 44 50 53 54 63 66 69
b 39 14 17 23 25 26 30 34 42 44 50 53 54 63
b 40 14 23 25 26 30 34 42 44 45 50 54 63
b 41 14 23 25 30 34 42 44 45 51
b 42 23 25 30 34 42 43 45 51
b 43 4 25 30 43 51
b 44 4 21 30 51
b 45 23 32 45 50 54 63
b 46 1 14 23 24 25 41 42 44 50 54 58 62 63 66 69 72 77
b 47 1 14 23 24 25 35 41 42 44 50 54 62 63 66 69 72 77
b 48 14 23 24 25 35 40 41 42 44 50 54 62 63 66 69 77
b 49 23 24 25 35 40 41 44 50 52 54 62 63 66 69 77
b 50 23 24 25 28 35 40 44 50 52 54 63 66 69 77
b 51 10 23 25 28 35 44 50 52 54 63 69 77
b 52 10 25 28 35 50 52 54 63 67 69 77
b 53 10 25 28 50 63 67 69 77 78
b 54 8 25 50 67 69 78
b 55 10 19 23 44 50
b 56 9 23 28 40 77
b 57 9 18 23 77
b 58 9 23 28 39
b 59 24 28 52 74
b 60 35 40 41 44 52 61 62
b 61 41 44 48 52 61
b 62 14 24 40 41 42 64
b 63 14 15 24 64
b 64 1 25 49 58
1 24
2 50
3 45
4 24
5 16
6 43
7 55
8 27
9 17
10 34
11 62
12 38
13 31
14 24
15 60
16 53
17 18
17 24
17 46
17 64
18 19
18 22
19 20
20 21
22 23
24 25
24 37
25 26
25 31
25 34
25 36
26 27
27 28
28 29
29 30
31 32
32 33
34 35
37 38
38 39
39 40
40 41
40 45
41 42
42 43
43 44
46 47
47 48
48 49
48 62
49 50
49 60
50 51
50 56
50 59
51 52
51 55
52 53
53 54
56 57
56 58
60 61
62 63
END

EOF
